1 of 1 MIP starts provided solutions.
MIP start 'm1' defined initial solution with objective 102147.0000.
Tried aggregator 1 time.
MIP Presolve eliminated 0 rows and 1 columns.
Reduced MIP has 60200 rows, 30400 columns, and 9210100 nonzeros.
Reduced MIP has 30000 binaries, 0 generals, 0 SOSs, and 0 indicators.
Presolve time = 5.18 sec. (2335.93 ticks)
Probing time = 0.26 sec. (95.80 ticks)
Tried aggregator 1 time.
Reduced MIP has 60200 rows, 30400 columns, and 9210100 nonzeros.
Reduced MIP has 30000 binaries, 0 generals, 0 SOSs, and 0 indicators.
Presolve time = 5.02 sec. (2336.05 ticks)
Probing time = 0.24 sec. (95.37 ticks)
Clique table members: 100.
MIP emphasis: balance optimality and feasibility.
MIP search method: dynamic search.
Parallel mode: none, using 1 thread.
Root relaxation solution time = 2.80 sec. (1006.45 ticks)

        Nodes                                         Cuts/
   Node  Left     Objective  IInf  Best Integer    Best Bound    ItCnt     Gap

*     0+    0                       102147.0000   102177.0000      841    0.03%
      0     0   102176.9086    36   102147.0000   102176.9086      841    0.03%
      0     0   102155.8147    14   102147.0000      Cuts: 43      882    0.01%

Implied bound cuts applied:  5
Flow cuts applied:  12
Mixed integer rounding cuts applied:  15
Gomory fractional cuts applied:  6

Root node processing (before b&c):
  Real time             =   29.18 sec. (13155.70 ticks)
Sequential b&c:
  Real time             =    0.00 sec. (0.00 ticks)
                          ------------
Total (root+branch&cut) =   29.18 sec. (13155.70 ticks)
